\ Model assignment problem none integer var
\ LP format - for model browsing. Use MPS format to capture full model detail.
Minimize
  13 X_0_0 + 6 X_0_1 + 15 X_0_2 + 7 X_0_3 + 7 X_0_4 + 11 X_1_0 + 13 X_1_1
   + 8 X_1_2 + 7 X_1_3 + 10 X_1_4 + 11 X_2_0 + 10 X_2_1 + 10 X_2_2
   + 8 X_2_3 + 6 X_2_4 + 15 X_3_0 + 9 X_3_1 + 10 X_3_2 + 7 X_3_3 + 12 X_3_4
   + 14 X_4_0 + 7 X_4_1 + 15 X_4_2 + 14 X_4_3 + 12 X_4_4
Subject To
 D_0: X_0_0 + X_1_0 + X_2_0 + X_3_0 + X_4_0 = 1
 D_1: X_0_1 + X_1_1 + X_2_1 + X_3_1 + X_4_1 = 1
 D_2: X_0_2 + X_1_2 + X_2_2 + X_3_2 + X_4_2 = 1
 D_3: X_0_3 + X_1_3 + X_2_3 + X_3_3 + X_4_3 = 1
 D_4: X_0_4 + X_1_4 + X_2_4 + X_3_4 + X_4_4 = 1
 R_0: X_0_0 + X_0_1 + X_0_2 + X_0_3 + X_0_4 = 1
 R_1: X_1_0 + X_1_1 + X_1_2 + X_1_3 + X_1_4 = 1
 R_2: X_2_0 + X_2_1 + X_2_2 + X_2_3 + X_2_4 = 1
 R_3: X_3_0 + X_3_1 + X_3_2 + X_3_3 + X_3_4 = 1
 R_4: X_4_0 + X_4_1 + X_4_2 + X_4_3 + X_4_4 = 1
Bounds
 X_0_0 <= 1
 X_0_1 <= 1
 X_0_2 <= 1
 X_0_3 <= 1
 X_0_4 <= 1
 X_1_0 <= 1
 X_1_1 <= 1
 X_1_2 <= 1
 X_1_3 <= 1
 X_1_4 <= 1
 X_2_0 <= 1
 X_2_1 <= 1
 X_2_2 <= 1
 X_2_3 <= 1
 X_2_4 <= 1
 X_3_0 <= 1
 X_3_1 <= 1
 X_3_2 <= 1
 X_3_3 <= 1
 X_3_4 <= 1
 X_4_0 <= 1
 X_4_1 <= 1
 X_4_2 <= 1
 X_4_3 <= 1
 X_4_4 <= 1
End
